unsat
(error "line 3683 column 17: model is not available")
(error "line 3684 column 17: model is not available")
(error "line 3685 column 18: model is not available")
(error "line 3686 column 19: model is not available")
(error "line 3687 column 19: model is not available")
(error "line 3688 column 19: model is not available")
(error "line 3689 column 19: model is not available")
(error "line 3690 column 19: model is not available")
(error "line 3691 column 19: model is not available")
(error "line 3692 column 19: model is not available")
(error "line 3693 column 19: model is not available")
(error "line 3694 column 19: model is not available")
(error "line 3695 column 19: model is not available")
(error "line 3696 column 18: model is not available")
(error "line 3697 column 19: model is not available")
(error "line 3698 column 19: model is not available")
(error "line 3699 column 19: model is not available")
(error "line 3700 column 19: model is not available")
(error "line 3701 column 19: model is not available")
(error "line 3702 column 19: model is not available")
(error "line 3703 column 19: model is not available")
(error "line 3704 column 19: model is not available")
(error "line 3705 column 19: model is not available")
(error "line 3706 column 19: model is not available")
(error "line 3707 column 18: model is not available")
(error "line 3708 column 19: model is not available")
(error "line 3709 column 19: model is not available")
(error "line 3710 column 19: model is not available")
(error "line 3711 column 19: model is not available")
(error "line 3712 column 19: model is not available")
(error "line 3713 column 19: model is not available")
(error "line 3714 column 19: model is not available")
(error "line 3715 column 19: model is not available")
(error "line 3716 column 19: model is not available")
(error "line 3717 column 19: model is not available")
(error "line 3718 column 18: model is not available")
(error "line 3719 column 19: model is not available")
(error "line 3720 column 19: model is not available")
(error "line 3721 column 19: model is not available")
(error "line 3722 column 19: model is not available")
(error "line 3723 column 19: model is not available")
(error "line 3724 column 19: model is not available")
(error "line 3725 column 19: model is not available")
(error "line 3726 column 19: model is not available")
(error "line 3727 column 19: model is not available")
(error "line 3728 column 19: model is not available")
(error "line 3729 column 18: model is not available")
(error "line 3730 column 19: model is not available")
(error "line 3731 column 19: model is not available")
(error "line 3732 column 19: model is not available")
(error "line 3733 column 19: model is not available")
(error "line 3734 column 19: model is not available")
(error "line 3735 column 19: model is not available")
(error "line 3736 column 19: model is not available")
(error "line 3737 column 19: model is not available")
(error "line 3738 column 19: model is not available")
(error "line 3739 column 19: model is not available")
(error "line 3740 column 18: model is not available")
(error "line 3741 column 19: model is not available")
(error "line 3742 column 19: model is not available")
(error "line 3743 column 19: model is not available")
(error "line 3744 column 19: model is not available")
(error "line 3745 column 19: model is not available")
(error "line 3746 column 19: model is not available")
(error "line 3747 column 19: model is not available")
(error "line 3748 column 19: model is not available")
(error "line 3749 column 19: model is not available")
(error "line 3750 column 19: model is not available")
(error "line 3751 column 18: model is not available")
(error "line 3752 column 19: model is not available")
(error "line 3753 column 18: model is not available")
(error "line 3754 column 18: model is not available")
(error "line 3755 column 18: model is not available")
(error "line 3756 column 17: model is not available")
(error "line 3757 column 18: model is not available")
(error "line 3758 column 18: model is not available")
(error "line 3759 column 18: model is not available")
(error "line 3760 column 18: model is not available")
(error "line 3761 column 18: model is not available")
(error "line 3762 column 18: model is not available")
(error "line 3763 column 18: model is not available")
(error "line 3764 column 18: model is not available")
(error "line 3765 column 18: model is not available")
(error "line 3766 column 18: model is not available")
(error "line 3767 column 17: model is not available")
(error "line 3768 column 18: model is not available")
(error "line 3769 column 18: model is not available")
(error "line 3770 column 18: model is not available")
(error "line 3771 column 18: model is not available")
(error "line 3772 column 18: model is not available")
(error "line 3773 column 18: model is not available")
(error "line 3774 column 18: model is not available")
(error "line 3775 column 18: model is not available")
(error "line 3776 column 18: model is not available")
(error "line 3777 column 18: model is not available")
(error "line 3778 column 17: model is not available")
(error "line 3779 column 18: model is not available")
(error "line 3780 column 18: model is not available")
(error "line 3781 column 18: model is not available")
(error "line 3782 column 18: model is not available")
(error "line 3783 column 18: model is not available")
(error "line 3784 column 18: model is not available")
(error "line 3785 column 18: model is not available")
(error "line 3786 column 18: model is not available")
(error "line 3787 column 18: model is not available")
(error "line 3788 column 18: model is not available")
(error "line 3789 column 17: model is not available")
(error "line 3790 column 18: model is not available")
(error "line 3791 column 18: model is not available")
(error "line 3792 column 18: model is not available")
(error "line 3793 column 18: model is not available")
(error "line 3794 column 18: model is not available")
(error "line 3795 column 18: model is not available")
(error "line 3796 column 18: model is not available")
(error "line 3797 column 18: model is not available")
(error "line 3798 column 18: model is not available")
(error "line 3799 column 18: model is not available")
(error "line 3800 column 17: model is not available")
(error "line 3801 column 18: model is not available")
(error "line 3802 column 18: model is not available")
(error "line 3803 column 18: model is not available")
(error "line 3804 column 18: model is not available")
(error "line 3805 column 18: model is not available")
(error "line 3806 column 18: model is not available")
(error "line 3807 column 18: model is not available")
(error "line 3808 column 18: model is not available")
(error "line 3809 column 18: model is not available")
(error "line 3810 column 18: model is not available")
(error "line 3811 column 17: model is not available")
(error "line 3812 column 18: model is not available")
(error "line 3813 column 18: model is not available")
(error "line 3814 column 18: model is not available")
(error "line 3815 column 18: model is not available")
(error "line 3816 column 18: model is not available")
(error "line 3817 column 18: model is not available")
(error "line 3818 column 18: model is not available")
(error "line 3819 column 18: model is not available")
(error "line 3820 column 18: model is not available")
(error "line 3821 column 18: model is not available")
(error "line 3822 column 17: model is not available")
(error "line 3823 column 18: model is not available")
(error "line 3824 column 18: model is not available")
(error "line 3825 column 18: model is not available")
(error "line 3826 column 18: model is not available")
(error "line 3827 column 18: model is not available")
(error "line 3828 column 18: model is not available")
(error "line 3829 column 18: model is not available")
(error "line 3830 column 18: model is not available")
(error "line 3831 column 18: model is not available")
(error "line 3832 column 18: model is not available")
(error "line 3833 column 17: model is not available")
(error "line 3834 column 18: model is not available")
(error "line 3835 column 18: model is not available")
(error "line 3836 column 18: model is not available")
(error "line 3837 column 18: model is not available")
(error "line 3838 column 18: model is not available")
(error "line 3839 column 18: model is not available")
(error "line 3840 column 18: model is not available")
(error "line 3841 column 18: model is not available")
(error "line 3842 column 18: model is not available")
(error "line 3843 column 18: model is not available")
(error "line 3844 column 38: model is not available")
(error "line 3845 column 45: model is not available")
(error "line 3846 column 38: model is not available")
(error "line 3847 column 45: model is not available")
(error "line 3848 column 46: model is not available")
(error "line 3849 column 53: model is not available")
(error "line 3850 column 40: model is not available")
(error "line 3851 column 47: model is not available")
(error "line 3852 column 38: model is not available")
(error "line 3853 column 45: model is not available")
(error "line 3854 column 38: model is not available")
(error "line 3855 column 45: model is not available")
(error "line 3856 column 41: model is not available")
(error "line 3857 column 48: model is not available")
(error "line 3858 column 41: model is not available")
(error "line 3859 column 48: model is not available")
(error "line 3860 column 41: model is not available")
(error "line 3861 column 48: model is not available")
(error "line 3862 column 41: model is not available")
(error "line 3863 column 41: model is not available")
(error "line 3864 column 48: model is not available")
(error "line 3865 column 41: model is not available")
(error "line 3866 column 48: model is not available")
(error "line 3867 column 41: model is not available")
(error "line 3868 column 48: model is not available")
(error "line 3869 column 37: model is not available")
(error "line 3870 column 44: model is not available")
(error "line 3871 column 42: model is not available")
(error "line 3872 column 42: model is not available")
(error "line 3873 column 42: model is not available")
(error "line 3874 column 38: model is not available")
(error "line 3875 column 38: model is not available")
(error "line 3876 column 38: model is not available")
(error "line 3877 column 38: model is not available")
(error "line 3878 column 38: model is not available")
(error "line 3879 column 41: model is not available")
(error "line 3880 column 48: model is not available")
(error "line 3881 column 41: model is not available")
(error "line 3882 column 48: model is not available")
(error "line 3883 column 41: model is not available")
(error "line 3884 column 48: model is not available")
(error "line 3885 column 41: model is not available")
(error "line 3886 column 48: model is not available")
(error "line 3887 column 41: model is not available")
(error "line 3888 column 48: model is not available")
(error "line 3889 column 41: model is not available")
(error "line 3890 column 48: model is not available")
(error "line 3891 column 41: model is not available")
(error "line 3892 column 48: model is not available")
(error "line 3893 column 22: model is not available")
(error "line 3894 column 29: model is not available")
(error "line 3895 column 23: model is not available")
(error "line 3896 column 30: model is not available")
(error "line 3897 column 23: model is not available")
(error "line 3898 column 30: model is not available")
(error "line 3899 column 23: model is not available")
(error "line 3900 column 30: model is not available")
(error "line 3901 column 22: model is not available")
(error "line 3902 column 29: model is not available")
(error "line 3903 column 22: model is not available")
(error "line 3904 column 29: model is not available")
(error "line 3905 column 22: model is not available")
(error "line 3906 column 29: model is not available")
(error "line 3907 column 22: model is not available")
(error "line 3908 column 29: model is not available")
(error "line 3909 column 22: model is not available")
(error "line 3910 column 29: model is not available")
(error "line 3911 column 22: model is not available")
(error "line 3912 column 29: model is not available")
(error "line 3913 column 22: model is not available")
(error "line 3914 column 29: model is not available")
(error "line 3915 column 22: model is not available")
(error "line 3916 column 29: model is not available")
(error "line 3917 column 22: model is not available")
(error "line 3918 column 29: model is not available")
(error "line 3919 column 23: model is not available")
(error "line 3920 column 30: model is not available")
(error "line 3921 column 23: model is not available")
(error "line 3922 column 30: model is not available")
(error "line 3923 column 23: model is not available")
(error "line 3924 column 30: model is not available")
(error "line 3925 column 22: model is not available")
(error "line 3926 column 29: model is not available")
(error "line 3927 column 22: model is not available")
(error "line 3928 column 29: model is not available")
(error "line 3929 column 22: model is not available")
(error "line 3930 column 29: model is not available")
(error "line 3931 column 22: model is not available")
(error "line 3932 column 29: model is not available")
(error "line 3933 column 22: model is not available")
(error "line 3934 column 29: model is not available")
(error "line 3935 column 22: model is not available")
(error "line 3936 column 29: model is not available")
(error "line 3937 column 22: model is not available")
(error "line 3938 column 29: model is not available")
(error "line 3939 column 22: model is not available")
(error "line 3940 column 29: model is not available")
(error "line 3941 column 38: model is not available")
(error "line 3942 column 39: model is not available")
(error "line 3943 column 39: model is not available")
(error "line 3944 column 39: model is not available")
(error "line 3945 column 39: model is not available")
(error "line 3946 column 39: model is not available")
(error "line 3947 column 39: model is not available")
(error "line 3948 column 39: model is not available")
(error "line 3949 column 39: model is not available")
(error "line 3950 column 39: model is not available")
(error "line 3951 column 39: model is not available")
(error "line 3952 column 38: model is not available")
(error "line 3953 column 39: model is not available")
(error "line 3954 column 39: model is not available")
(error "line 3955 column 39: model is not available")
(error "line 3956 column 39: model is not available")
(error "line 3957 column 39: model is not available")
(error "line 3958 column 38: model is not available")
(error "line 3959 column 38: model is not available")
(error "line 3960 column 38: model is not available")
(error "line 3961 column 38: model is not available")
(error "line 3962 column 38: model is not available")
(error "line 3963 column 38: model is not available")
(error "line 3964 column 38: model is not available")
(error "line 3965 column 36: model is not available")
(error "line 3966 column 36: model is not available")
(error "line 3967 column 36: model is not available")
(error "line 3968 column 30: model is not available")
(error "line 3969 column 32: model is not available")
(error "line 3970 column 39: model is not available")
(error "line 3971 column 32: model is not available")
(error "line 3972 column 39: model is not available")
(error "line 3973 column 32: model is not available")
(error "line 3974 column 39: model is not available")
(error "line 3975 column 32: model is not available")
(error "line 3976 column 39: model is not available")
(error "line 3977 column 30: model is not available")
(error "line 3978 column 32: model is not available")
(error "line 3979 column 39: model is not available")
(error "line 3980 column 32: model is not available")
(error "line 3981 column 39: model is not available")
(error "line 3982 column 32: model is not available")
(error "line 3983 column 39: model is not available")
(error "line 3984 column 32: model is not available")
(error "line 3985 column 39: model is not available")
(error "line 3986 column 53: model is not available")
(error "line 3987 column 52: model is not available")
(error "line 3988 column 54: model is not available")
(error "line 3989 column 54: model is not available")
(error "line 3990 column 54: model is not available")
(error "line 3991 column 54: model is not available")
(error "line 3992 column 53: model is not available")
(error "line 3993 column 53: model is not available")
(error "line 3994 column 52: model is not available")
(error "line 3995 column 51: model is not available")
(error "line 3996 column 52: model is not available")
(error "line 3997 column 52: model is not available")
(error "line 3998 column 54: model is not available")
(error "line 3999 column 54: model is not available")
(error "line 4000 column 54: model is not available")
(error "line 4001 column 54: model is not available")
(error "line 4002 column 53: model is not available")
(error "line 4003 column 53: model is not available")
(error "line 4004 column 52: model is not available")
(error "line 4005 column 51: model is not available")
(error "line 4006 column 52: model is not available")
(error "line 4007 column 52: model is not available")
(error "line 4008 column 53: model is not available")
(error "line 4009 column 52: model is not available")
(error "line 4010 column 53: model is not available")
(error "line 4011 column 53: model is not available")
(error "line 4012 column 53: model is not available")
(error "line 4013 column 53: model is not available")
(error "line 4014 column 52: model is not available")
(error "line 4015 column 52: model is not available")
(error "line 4016 column 52: model is not available")
(error "line 4017 column 53: model is not available")
(error "line 4018 column 53: model is not available")
(error "line 4019 column 53: model is not available")
(error "line 4020 column 53: model is not available")
(error "line 4021 column 53: model is not available")
(error "line 4022 column 53: model is not available")
(error "line 4023 column 53: model is not available")
(error "line 4024 column 52: model is not available")
(error "line 4025 column 51: model is not available")
(error "line 4026 column 52: model is not available")
(error "line 4027 column 52: model is not available")
(error "line 4028 column 52: model is not available")
(error "line 4029 column 52: model is not available")
(error "line 4030 column 51: model is not available")
(error "line 4031 column 51: model is not available")
(error "line 4032 column 51: model is not available")
(error "line 4033 column 51: model is not available")
(error "line 4034 column 52: model is not available")
(error "line 4035 column 52: model is not available")
(error "line 4036 column 52: model is not available")
(error "line 4037 column 52: model is not available")
(error "line 4038 column 52: model is not available")
(error "line 4039 column 52: model is not available")
(error "line 4040 column 51: model is not available")
(error "line 4041 column 52: model is not available")
(error "line 4042 column 52: model is not available")
(error "line 4043 column 52: model is not available")
(error "line 4044 column 52: model is not available")
(error "line 4045 column 51: model is not available")
(error "line 4046 column 51: model is not available")
(error "line 4047 column 51: model is not available")
(error "line 4048 column 52: model is not available")
(error "line 4049 column 52: model is not available")
(error "line 4050 column 52: model is not available")
(error "line 4051 column 52: model is not available")
(error "line 4052 column 52: model is not available")
(error "line 4053 column 52: model is not available")
(error "line 4054 column 53: model is not available")
(error "line 4055 column 53: model is not available")
(error "line 4056 column 53: model is not available")
(error "line 4057 column 53: model is not available")
(error "line 4058 column 52: model is not available")
(error "line 4059 column 52: model is not available")
(error "line 4060 column 52: model is not available")
(error "line 4061 column 53: model is not available")
(error "line 4062 column 53: model is not available")
(error "line 4063 column 54: model is not available")
(error "line 4064 column 54: model is not available")
(error "line 4065 column 53: model is not available")
(error "line 4066 column 53: model is not available")
(error "line 4067 column 53: model is not available")
(error "line 4068 column 51: model is not available")
(error "line 4069 column 51: model is not available")
(error "line 4070 column 52: model is not available")
(error "line 4071 column 52: model is not available")
(error "line 4072 column 52: model is not available")
(error "line 4073 column 52: model is not available")
(error "line 4074 column 51: model is not available")
(error "line 4075 column 51: model is not available")
(error "line 4076 column 51: model is not available")
(error "line 4077 column 51: model is not available")
(error "line 4078 column 52: model is not available")
(error "line 4079 column 52: model is not available")
(error "line 4080 column 52: model is not available")
(error "line 4081 column 52: model is not available")
(error "line 4082 column 52: model is not available")
(error "line 4083 column 51: model is not available")
(error "line 4084 column 51: model is not available")
(error "line 4085 column 52: model is not available")
(error "line 4086 column 52: model is not available")
(error "line 4087 column 52: model is not available")
(error "line 4088 column 52: model is not available")
(error "line 4089 column 51: model is not available")
(error "line 4090 column 51: model is not available")
(error "line 4091 column 51: model is not available")
(error "line 4092 column 52: model is not available")
(error "line 4093 column 52: model is not available")
(error "line 4094 column 52: model is not available")
(error "line 4095 column 52: model is not available")
(error "line 4096 column 57: model is not available")
(error "line 4097 column 58: model is not available")
(error "line 4098 column 58: model is not available")
(error "line 4099 column 58: model is not available")
(error "line 4100 column 58: model is not available")
(error "line 4101 column 57: model is not available")
(error "line 4102 column 57: model is not available")
(error "line 4103 column 57: model is not available")
(error "line 4104 column 58: model is not available")
(error "line 4105 column 58: model is not available")
(error "line 4106 column 58: model is not available")
(error "line 4107 column 58: model is not available")
(error "line 4108 column 57: model is not available")
(error "line 4109 column 57: model is not available")
(error "line 4110 column 56: model is not available")
(error "line 4111 column 57: model is not available")
(error "line 4112 column 57: model is not available")
(error "line 4113 column 57: model is not available")
(error "line 4114 column 57: model is not available")
(error "line 4115 column 56: model is not available")
(error "line 4116 column 56: model is not available")
(error "line 4117 column 56: model is not available")
(error "line 4118 column 58: model is not available")
(error "line 4119 column 58: model is not available")
(error "line 4120 column 58: model is not available")
(error "line 4121 column 46: model is not available")
(error "line 4122 column 46: model is not available")
(error "line 4123 column 46: model is not available")
(error "line 4124 column 46: model is not available")
(error "line 4125 column 54: model is not available")
(error "line 4126 column 54: model is not available")
(error "line 4127 column 54: model is not available")
(error "line 4128 column 54: model is not available")
(error "line 4129 column 54: model is not available")
(error "line 4130 column 54: model is not available")
(error "line 4131 column 40: model is not available")
(error "line 4132 column 40: model is not available")
(error "line 4133 column 40: model is not available")
(error "line 4134 column 40: model is not available")
(error "line 4135 column 41: model is not available")
(error "line 4136 column 41: model is not available")
(error "line 4137 column 41: model is not available")
(error "line 4138 column 41: model is not available")
(error "line 4139 column 50: model is not available")
(error "line 4140 column 50: model is not available")
(error "line 4141 column 50: model is not available")
(error "line 4142 column 50: model is not available")
(error "line 4143 column 43: model is not available")
(error "line 4144 column 43: model is not available")
(error "line 4145 column 43: model is not available")
(error "line 4146 column 43: model is not available")
(error "line 4147 column 44: model is not available")
(error "line 4148 column 44: model is not available")
(error "line 4149 column 45: model is not available")
(error "line 4150 column 45: model is not available")
(error "line 4151 column 45: model is not available")
(error "line 4152 column 45: model is not available")
(error "line 4153 column 45: model is not available")
(error "line 4154 column 44: model is not available")
(error "line 4155 column 44: model is not available")
(error "line 4156 column 44: model is not available")
(error "line 4157 column 44: model is not available")
(error "line 4158 column 44: model is not available")
(error "line 4159 column 44: model is not available")
(error "line 4160 column 44: model is not available")
(error "line 4161 column 44: model is not available")
(error "line 4162 column 44: model is not available")
(error "line 4163 column 44: model is not available")
(error "line 4164 column 41: model is not available")
(error "line 4165 column 41: model is not available")
(error "line 4166 column 44: model is not available")
(error "line 4167 column 44: model is not available")
(error "line 4168 column 26: model is not available")
(error "line 4169 column 30: model is not available")
(error "line 4170 column 30: model is not available")
(error "line 4171 column 36: model is not available")
(error "line 4172 column 36: model is not available")
(error "line 4173 column 36: model is not available")
(error "line 4174 column 28: model is not available")
(error "line 4175 column 36: model is not available")
(error "line 4176 column 36: model is not available")
(error "line 4177 column 36: model is not available")
(error "line 4178 column 28: model is not available")
(error "line 4179 column 21: model is not available")
(error "line 4180 column 28: model is not available")
(error "line 4181 column 22: model is not available")
(error "line 4182 column 29: model is not available")
(error "line 4183 column 22: model is not available")
(error "line 4184 column 29: model is not available")
(error "line 4185 column 22: model is not available")
(error "line 4186 column 29: model is not available")
(error "line 4187 column 22: model is not available")
(error "line 4188 column 29: model is not available")
(error "line 4189 column 22: model is not available")
(error "line 4190 column 29: model is not available")
(error "line 4191 column 22: model is not available")
(error "line 4192 column 29: model is not available")
(error "line 4193 column 21: model is not available")
(error "line 4194 column 28: model is not available")
(error "line 4195 column 21: model is not available")
(error "line 4196 column 28: model is not available")
(error "line 4197 column 21: model is not available")
(error "line 4198 column 28: model is not available")
(error "line 4199 column 21: model is not available")
(error "line 4200 column 28: model is not available")
(error "line 4201 column 21: model is not available")
(error "line 4202 column 28: model is not available")
(error "line 4203 column 21: model is not available")
(error "line 4204 column 28: model is not available")
(error "line 4205 column 21: model is not available")
(error "line 4206 column 28: model is not available")
(error "line 4207 column 21: model is not available")
(error "line 4208 column 28: model is not available")
(error "line 4209 column 18: model is not available")
(error "line 4210 column 25: model is not available")
(error "line 4211 column 18: model is not available")
(error "line 4212 column 25: model is not available")
(error "line 4213 column 18: model is not available")
(error "line 4214 column 25: model is not available")
(error "line 4215 column 18: model is not available")
(error "line 4216 column 25: model is not available")
(error "line 4217 column 18: model is not available")
(error "line 4218 column 25: model is not available")
(error "line 4220 column 10: model is not available")
(:added-eqs                      224
 :arith-bound-propagations-cheap 89
 :arith-bound-propagations-lp    271
 :arith-conflicts                5
 :arith-lower                    168
 :arith-make-feasible            71
 :arith-max-columns              309
 :arith-max-rows                 240
 :arith-propagations             89
 :arith-upper                    171
 :array-ax1                      2
 :binary-propagations            1558
 :bv-bit2core                    1868
 :bv-diseqs                      1
 :bv-dynamic-diseqs              6
 :bv->core-eq                    2
 :conflicts                      30
 :decisions                      126
 :del-clause                     608
 :eliminated-applications        16
 :eliminated-vars                27
 :max-memory                     6.21
 :memory                         3.69
 :minimized-lits                 4
 :mk-bool-var                    1990
 :mk-clause                      1087
 :num-allocs                     4475102
 :num-checks                     1
 :propagations                   2165
 :rlimit-count                   291567
 :time                           0.03
 :total-time                     0.05)

real	0m0.050s
user	0m0.046s
sys	0m0.003s
State: RE Run_time: 0.05155205726623535